sat
(
  (define-fun VM1Type () Int
    7)
  (define-fun C3_VM8 () Int
    0)
  (define-fun ProcProv2 () Int
    900)
  (define-fun StorageProv6 () Int
    42000)
  (define-fun ProcProv3 () Int
    3601)
  (define-fun C2_VM3 () Int
    0)
  (define-fun C2_VM2 () Int
    1)
  (define-fun MemProv10 () Int
    28351)
  (define-fun C3_VM3 () Int
    0)
  (define-fun C2_VM9 () Int
    0)
  (define-fun C2_VM7 () Int
    0)
  (define-fun C5_VM8 () Int
    1)
  (define-fun ProcProv5 () Int
    1800)
  (define-fun C4_VM10 () Int
    0)
  (define-fun C5_VM10 () Int
    0)
  (define-fun C4_VM1 () Int
    0)
  (define-fun C4_VM2 () Int
    0)
  (define-fun PriceProv10 () Int
    0)
  (define-fun PriceProv6 () Int
    120)
  (define-fun VM8Type () Int
    10)
  (define-fun PriceProv2 () Int
    120)
  (define-fun C4_VM8 () Int
    0)
  (define-fun VM6Type () Int
    1)
  (define-fun C5_VM3 () Int
    0)
  (define-fun MemProv5 () Int
    3151)
  (define-fun StorageProv10 () Int
    87001)
  (define-fun C4_VM7 () Int
    0)
  (define-fun C3_VM2 () Int
    0)
  (define-fun MemProv7 () Int
    6750)
  (define-fun C4_VM6 () Int
    0)
  (define-fun C3_VM9 () Int
    0)
  (define-fun C5_VM6 () Int
    0)
  (define-fun C2_VM4 () Int
    1)
  (define-fun C5_VM2 () Int
    0)
  (define-fun C5_VM5 () Int
    0)
  (define-fun C2_VM6 () Int
    1)
  (define-fun StorageProv8 () Int
    141000)
  (define-fun C5_VM7 () Int
    1)
  (define-fun C5_VM4 () Int
    0)
  (define-fun VM5Type () Int
    0)
  (define-fun MemProv2 () Int
    1350)
  (define-fun StorageProv5 () Int
    69000)
  (define-fun PriceProv4 () Int
    120)
  (define-fun PriceProv7 () Int
    480)
  (define-fun PriceProv5 () Int
    0)
  (define-fun C3_VM5 () Int
    0)
  (define-fun ProcProv4 () Int
    900)
  (define-fun C3_VM4 () Int
    0)
  (define-fun StorageProv4 () Int
    42000)
  (define-fun C2_VM1 () Int
    0)
  (define-fun C4_VM4 () Int
    0)
  (define-fun C1_VM9 () Int
    0)
  (define-fun C1_VM6 () Int
    0)
  (define-fun MemProv6 () Int
    1350)
  (define-fun VM10Type () Int
    0)
  (define-fun ProcProv8 () Int
    3600)
  (define-fun VM4Type () Int
    1)
  (define-fun PriceProv3 () Int
    0)
  (define-fun C2_VM5 () Int
    0)
  (define-fun PriceProv8 () Int
    480)
  (define-fun ProcProv7 () Int
    3600)
  (define-fun MemProv9 () Int
    13951)
  (define-fun ProcProv9 () Int
    1801)
  (define-fun MemProv3 () Int
    13949)
  (define-fun VM9Type () Int
    0)
  (define-fun C4_VM3 () Int
    0)
  (define-fun C3_VM1 () Int
    1)
  (define-fun VM2Type () Int
    1)
  (define-fun C1_VM1 () Int
    0)
  (define-fun StorageProv9 () Int
    87001)
  (define-fun C4_VM5 () Int
    0)
  (define-fun PriceProv1 () Int
    240)
  (define-fun MemProv8 () Int
    6750)
  (define-fun C4_VM9 () Int
    0)
  (define-fun C3_VM10 () Int
    0)
  (define-fun C3_VM7 () Int
    0)
  (define-fun StorageProv1 () Int
    69000)
  (define-fun MemProv4 () Int
    1350)
  (define-fun C1_VM7 () Int
    1)
  (define-fun MemProv1 () Int
    3150)
  (define-fun StorageProv2 () Int
    42000)
  (define-fun C1_VM2 () Int
    1)
  (define-fun VM7Type () Int
    10)
  (define-fun C2_VM8 () Int
    0)
  (define-fun StorageProv7 () Int
    141000)
  (define-fun C1_VM4 () Int
    1)
  (define-fun C1_VM10 () Int
    0)
  (define-fun ProcProv10 () Int
    1801)
  (define-fun C1_VM3 () Int
    0)
  (define-fun ProcProv6 () Int
    900)
  (define-fun C3_VM6 () Int
    0)
  (define-fun PriceProv9 () Int
    0)
  (define-fun StorageProv3 () Int
    402001)
  (define-fun C1_VM8 () Int
    1)
  (define-fun C5_VM9 () Int
    0)
  (define-fun ProcProv1 () Int
    1800)
  (define-fun C1_VM5 () Int
    0)
  (define-fun VM3Type () Int
    0)
  (define-fun C5_VM1 () Int
    0)
  (define-fun C2_VM10 () Int
    0)
)
(objectives
 ( 16)
 ((+ 0
   PriceProv1
   PriceProv2
   PriceProv3
   PriceProv4
   PriceProv5
   PriceProv6
   PriceProv7
   PriceProv8
   PriceProv9
   PriceProv10) 1560)
)
(:added-eqs                   165099
 :arith-eq-adapter            30062
 :arith-bound-propagations-lp 363
 :arith-conflicts             22
 :arith-diseq                 117845
 :arith-fixed-eqs             3539
 :arith-lower                 192751
 :arith-make-feasible         24174
 :arith-max-columns           169
 :arith-max-rows              32
 :arith-upper                 80860
 :binary-propagations         630947
 :conflicts                   2095
 :decisions                   71253
 :del-clause                  20146
 :final-checks                44
 :max-memory                  44.72
 :maxsat-cores                2
 :memory                      44.54
 :minimized-lits              13089
 :mk-bool-var                 58712
 :mk-clause                   21867
 :mk-clause-binary            4919
 :num-allocs                  40574596
 :num-checks                  52
 :pb-conflicts                1297
 :pb-predicates               507
 :pb-propagations             4045
 :pb-resolves                 1237
 :propagations                847147
 :restarts                    12
 :rlimit-count                6222122
 :time                        0.31
 :total-time                  0.32)
